10 10 3

0 409 243 450 155 335 192 120 178 206 
461 0 77 489 449 341 489 421 92 391 
451 325 0 378 220 388 66 98 321 297 
215 177 436 0 247 85 178 403 397 219 
301 468 347 213 0 184 130 202 339 422 
190 259 464 287 210 0 495 165 136 139 
388 184 410 184 106 293 0 119 303 85 
454 413 432 379 420 155 433 0 133 289 
62 285 335 190 425 300 361 211 0 216 
355 82 302 444 420 193 110 311 249 0 

137.4 0 5
137.4 1 8
137.4 2 0
137.4 3 5
137.4 4 8
137.4 5 2
137.4 6 4
137.4 7 4
137.4 8 2
137.4 9 5

